18 16

6 10 5 15 8 10 2 6
14 4 5 9 9 11 1 14
16 11 15 8 6 3 14 12 12 7 4 8
16 3 4 7 3 2 2 10 15 11
11 5 6 13 15 6 9 5
4 3 12 8 15 5 1 15
12 2 9 2 13 7 1 10 11 2 16 13
4 10 5 5 2 3 15 5 8 15 13 8
7 8 11 7 8 2 4 3 15 3 5 3
4 3 1 5 12 6 5 11 11 3 7 9
2 3 5 15 11 15 10 10
1 11 6 7 7 2 13 13 11 10
15 13 1 4 10 3 16 7 12 4
5 11 15 2 10 15 2 15
10 2 8 11 4 15 9 7 5 2
3 13 13 14 15 14 4 8 11 15
2 13 10 11 13 2 1 9 8 6
5 15 2 11 11 13 10 15 14 9 9 2
